
******************************************************************************
This program contains Ipopt, a library for large-scale nonlinear optimization.
 Ipopt is released as open source code under the Eclipse Public License (EPL).
         For more information visit http://projects.coin-or.org/Ipopt
******************************************************************************

This is Ipopt version 3.12.6, running with linear solver ma57.

Number of nonzeros in equality constraint Jacobian...:    50341
Number of nonzeros in inequality constraint Jacobian.:        0
Number of nonzeros in Lagrangian Hessian.............:    79599

Total number of variables............................:     3969
                     variables with only lower bounds:        0
                variables with lower and upper bounds:        0
                     variables with only upper bounds:        0
Total number of equality constraints.................:     3969
Total number of inequality constraints...............:        0
        inequality constraints with only lower bounds:        0
   inequality constraints with lower and upper bounds:        0
        inequality constraints with only upper bounds:        0

iter    objective    inf_pr   inf_du lg(mu)  ||d||  lg(rg) alpha_du alpha_pr  ls
   0  0.0000000e+00 3.85e-02 0.00e+00  -1.0 0.00e+00    -  0.00e+00 0.00e+00   0
Reallocating memory for MA57: lfact (3075298)
Reallocating memory for MA57: lfact (4035553)
Reallocating memory for MA57: lfact (4546949)
   1  0.0000000e+00 2.09e-02 4.36e-13  -2.5 9.87e-02    -  1.00e+00 1.00e+00h  1
   2  0.0000000e+00 1.39e-02 5.25e-12  -3.8 8.88e-02    -  1.00e+00 1.00e+00h  1
   3  0.0000000e+00 1.06e-03 9.64e-12  -3.8 6.75e-02    -  1.00e+00 1.00e+00h  1
   4  0.0000000e+00 3.20e-04 2.28e-11  -5.7 7.08e-02    -  1.00e+00 1.00e+00h  1
   5  0.0000000e+00 8.71e-05 4.35e-12  -5.7 1.34e-02    -  1.00e+00 1.00e+00h  1
   6  0.0000000e+00 8.98e-06 1.06e-12  -5.7 6.57e-03    -  1.00e+00 1.00e+00h  1
   7  0.0000000e+00 7.80e-08 1.10e-14  -8.6 2.96e-04    -  1.00e+00 1.00e+00h  1
   8  0.0000000e+00 6.18e-12 6.96e-19  -8.6 4.15e-06    -  1.00e+00 1.00e+00h  1

Number of Iterations....: 8

                                   (scaled)                 (unscaled)
Objective...............:   0.0000000000000000e+00    0.0000000000000000e+00
Dual infeasibility......:   0.0000000000000000e+00    0.0000000000000000e+00
Constraint violation....:   6.1781467765862404e-12    6.1781467765862404e-12
Complementarity.........:   0.0000000000000000e+00    0.0000000000000000e+00
Overall NLP error.......:   6.1781467765862404e-12    6.1781467765862404e-12


Number of objective function evaluations             = 9
Number of objective gradient evaluations             = 9
Number of equality constraint evaluations            = 9
Number of inequality constraint evaluations          = 0
Number of equality constraint Jacobian evaluations   = 9
Number of inequality constraint Jacobian evaluations = 0
Number of Lagrangian Hessian evaluations             = 8
Total CPU secs in IPOPT (w/o function evaluations)   =      3.787
Total CPU secs in NLP function evaluations           =      0.160

EXIT: Optimal Solution Found.

************************ CUTEst statistics ************************


 Package used            :  IPOPT
 Problem                 :  DRCAVTY1  
 # variables             =            4489
 # constraints           =            3969
 # objective functions   =        0.1900000E+02
 # objective gradients   =        0.1000000E+02
 # objective Hessians    =        0.9000000E+01
 # Hessian-vector prdct  =        0.0000000E+00
 # constraints functions =        0.2000000E+02
 # constraints gradients =        0.1100000E+02
 # constraints Hessians  =        0.9000000E+01
 Exit code               =               0
 Final f                 =   0.0000000E+00
 Set up time             =            0.19 seconds
 Solve time              =           10.35 seconds


******************************************************************

System Time =       2.6080000401 s.
